% Auto-generated by scripts/generate_dzn.py
% problem_type   = regex
% instance       = regex_6
% source_json    = instances_json/2_high_blowup/regex_6.json
% blowup         = 12.434782608695652
% representation = NFA

mode = 1;

var_count = 22;
n_constraints = 2;
Q = 15;
S = 3;
q0 = [1, 1];
F = [{15}, {8}];
weights = [10, 10, 8, 4, 9, 6, 10, 9, 3, 3, 2, 8, 6, 8, 2, 8, 10, 8, 10, 8, 3, 5];
d_dfa = array3d(1..2, 1..15, 1..3, [
  % k = 1
    0, 0, 0,
    0, 0, 0,
    0, 0, 0,
    0, 0, 0,
    0, 0, 0,
    0, 0, 0,
    0, 0, 0,
    0, 0, 0,
    0, 0, 0,
    0, 0, 0,
    0, 0, 0,
    0, 0, 0,
    0, 0, 0,
    0, 0, 0,
    0, 0, 0,

  % k = 2
    0, 0, 0,
    0, 0, 0,
    0, 0, 0,
    0, 0, 0,
    0, 0, 0,
    0, 0, 0,
    0, 0, 0,
    0, 0, 0,
    0, 0, 0,
    0, 0, 0,
    0, 0, 0,
    0, 0, 0,
    0, 0, 0,
    0, 0, 0,
    0, 0, 0
]);
d_nfa = array3d(1..2, 1..15, 1..3, [
  % k = 1
    {1, 2}, {1}, {1},
    {3}, {}, {},
    {}, {4}, {},
    {5}, {5}, {5},
    {6}, {6}, {6},
    {7}, {7}, {7},
    {8}, {8}, {8},
    {9}, {9}, {9},
    {10}, {10}, {10},
    {11}, {11}, {11},
    {12}, {12}, {12},
    {13}, {13}, {13},
    {14}, {14}, {14},
    {15}, {15}, {15},
    {}, {}, {},

  % k = 2
    {2}, {1}, {1},
    {3}, {2}, {2},
    {4}, {3}, {3},
    {5}, {4}, {4},
    {6}, {5}, {5},
    {7}, {6}, {6},
    {8}, {7}, {7},
    {}, {8}, {8},
    {}, {}, {},
    {}, {}, {},
    {}, {}, {},
    {}, {}, {},
    {}, {}, {},
    {}, {}, {},
    {}, {}, {}
]);
